c CNF problem with 9 variables and 34 clauses
p cnf 9 34
1 -2 -3 0
1 2 -4 0
1 3 -5 0
2 -3 4 0
2 -3 5 0
3 4 -5 0
1 -6 -7 0
1 6 -8 0
1 7 -9 0
6 -7 8 0
6 -7 9 0
7 8 -9 0
2 -6 -8 0
2 6 -9 0
2 8 -4 0
6 -8 9 0
7 -6 -4 0
7 6 -5 0
7 9 -3 0
8 -6 4 0
8 -9 3 0
8 4 -5 0
3 -6 -9 0
3 6 -8 0
3 5 -4 0
4 -6 5 0
4 -9 2 0
4 5 -8 0
1 -5 7 0
1 -8 -9 0
2 3 -7 0
2 -5 9 0
3 4 -6 0
